; ./aeval/./multi-phase/s_split_12_000.smt2
(set-logic HORN)

(declare-fun |inv| ( Int Int Int ) Bool)
(declare-fun |fail| ( ) Bool)

(assert
  (forall ( (A Int) (B Int) (C Int) ) 
    (=>
      (and
        (and (= B 0) (= C 0) (= A 0))
      )
      (inv A B C)
    )
  )
)
(assert
  (forall ( (A Int) (B Int) (C Int) (D Int) (E Int) (F Int) ) 
    (=>
      (and
        (inv B A C)
        (let ((a!1 (= E (ite (= (mod B 2) 0) (+ 1 A) A)))
      (a!2 (= F (ite (= (mod B 2) 0) C (+ 1 C)))))
  (and a!1 a!2 (= D (+ 1 B))))
      )
      (inv D E F)
    )
  )
)
(assert
  (forall ( (A Int) (B Int) (C Int) ) 
    (=>
      (and
        (inv A B C)
        (and (not (= B C)) (= A 1342342))
      )
      fail
    )
  )
)
(assert
  (forall ( (CHC_COMP_UNUSED Bool) ) 
    (=>
      (and
        fail
        true
      )
      false
    )
  )
)

(check-sat)
(exit)
